##TITLE=Trinitrotoluene
##JCAMP-DX=4.24
##DATA TYPE=MASS SPECTRUM
##ORIGIN=Japan AIST/NIMC Database- Spectrum MS-IW-5216
##OWNER=NIST Mass Spectrometry Data Center
Collection (C) 2014 copyright by the U.S. Secretary of Commerce
on behalf of the United States of America. All rights reserved.
##CAS REGISTRY NO=118-96-7
##$NIST MASS SPEC NO=242273
##MOLFORM=C7 H5 N3 O6
##MW=227
##$NIST SOURCE=MSDC
##XUNITS=M/Z
##YUNITS=RELATIVE INTENSITY
##XFACTOR=1
##YFACTOR=1
##FIRSTX=15
##LASTX=228
##FIRSTY=10
##MAXX=228
##MINX=15
##MAXY=9999
##MINY=10
##NPOINTS=116
##PEAK TABLE=(XY..XY)
15,10 26,10 27,90 28,389
29,90 30,1669 31,30 37,60
38,109 39,799 40,40 41,20
42,10 43,429 44,139 45,10
46,279 47,10 48,10 49,20
50,469 51,619 52,169 53,159
54,30 55,50 56,10 57,10
60,60 61,149 62,939 63,1699
64,339 65,309 66,129 67,149
68,70 69,259 70,10 71,10
73,50 74,399 75,469 76,949
77,499 78,199 79,90 80,80
81,20 82,10 83,10 84,20
85,80 86,249 87,379 88,579
89,2349 90,359 91,139 92,239
93,109 94,109 95,30 96,30
99,10 100,10 103,219 104,269
105,309 106,259 107,80 108,20
116,50 117,109 118,109 119,70
120,299 121,60 122,30 123,20
124,10 132,10 133,109 134,1159
135,199 136,119 137,10 147,10
148,10 149,969 150,80 151,109
152,139 153,20 162,10 163,199
164,499 165,50 166,329 167,30
179,729 180,1129 181,99 182,40
193,1139 194,169 195,20 197,20
209,559 210,9999 211,929 212,139
213,10 226,20 227,259 228,30
##END=
